
n_res = 8;
rcap = [21, 20, 22, 20, 922, 866, 885, 753];
rtype = [1, 1, 1, 1, 2, 2, 2, 2];
n_tasks = 50;
modes =  [{1, 2, 3}, {4, 5, 6}, {7, 8, 9}, {10, 11, 12}, {13, 14, 15}, {16, 17, 18}, {19, 20, 21}, {22, 23, 24}, {25, 26, 27}, {28, 29, 30}, {31, 32, 33}, {34, 35, 36}, {37, 38, 39}, {40, 41, 42}, {43, 44, 45}, {46, 47, 48}, {49, 50, 51}, {52, 53, 54}, {55, 56, 57}, {58, 59, 60}, {61, 62, 63}, {64, 65, 66}, {67, 68, 69}, {70, 71, 72}, {73, 74, 75}, {76, 77, 78}, {79, 80, 81}, {82, 83, 84}, {85, 86, 87}, {88, 89, 90}, {91, 92, 93}, {94, 95, 96}, {97, 98, 99}, {100, 101, 102}, {103, 104, 105}, {106, 107, 108}, {109, 110, 111}, {112, 113, 114}, {115, 116, 117}, {118, 119, 120}, {121, 122, 123}, {124, 125, 126}, {127, 128, 129}, {130, 131, 132}, {133, 134, 135}, {136, 137, 138}, {139, 140, 141}, {142, 143, 144}, {145, 146, 147}, {148, 149, 150}];
succ =  [{21, 20, 19, 17, 16, 15, 14, 13, 11, 6}, {25, 21, 20, 19, 17, 15, 12, 11, 6}, {20, 19, 17, 16, 14, 13, 11, 6}, {30, 28, 23, 20, 16, 13, 11, 10}, {28, 25, 24, 23, 22, 18, 17}, {35, 28, 23, 10}, {35, 29, 28, 26, 24, 23, 22, 19}, {35, 31, 30, 27, 26, 25, 21}, {35, 31, 23, 22, 18}, {33, 31, 27, 26, 22, 18}, {50, 49, 48, 38, 35, 33, 31, 24}, {49, 38, 37, 33, 32, 30, 29, 24}, {49, 48, 38, 37, 33, 29, 24}, {49, 48, 39, 37, 32, 31, 25}, {50, 39, 38, 37, 32, 29, 23}, {50, 49, 35, 22}, {49, 35, 31, 30, 27}, {50, 49, 48, 46, 45, 38, 37, 36, 34, 29}, {49, 46, 45, 39, 38, 33, 31, 27}, {50, 48, 46, 37, 34, 32, 31, 29}, {50, 49, 48, 46, 45, 42, 38, 37, 36, 29}, {48, 46, 44, 43, 39, 38, 37, 34, 32}, {47, 46, 45, 33, 27}, {47, 46, 45, 39, 27}, {50, 46, 44, 43, 38, 33}, {49, 44, 43, 41, 40, 39}, {44, 43, 36, 34}, {45, 43, 36, 34}, {47, 44, 43, 41, 40}, {48, 45, 42, 41, 40}, {47, 42, 41, 36}, {45, 42, 41, 36}, {42, 41, 36}, {42, 41, 40}, {46, 37}, {40}, {40}, {41}, {42}, {}, {}, {}, {}, {}, {}, {}, {}, {}, {}, {}];
n_opt = 150;
dur = [10, 15, 21, 2, 23, 28, 5, 7, 9, 3, 16, 24, 22, 24, 30, 13, 27, 28, 10, 21, 27, 9, 25, 30, 5, 6, 25, 12, 26, 27, 2, 3, 16, 10, 11, 21, 10, 15, 24, 5, 6, 20, 2, 18, 27, 15, 19, 24, 2, 13, 23, 16, 22, 23, 8, 17, 21, 2, 15, 25, 15, 19, 24, 7, 14, 20, 14, 15, 19, 19, 23, 24, 8, 10, 21, 28, 29, 30, 18, 21, 23, 2, 5, 29, 9, 16, 19, 15, 27, 28, 9, 16, 30, 13, 27, 29, 3, 10, 30, 17, 18, 23, 2, 12, 27, 1, 8, 14, 15, 16, 27, 10, 25, 26, 9, 15, 21, 2, 5, 17, 9, 21, 26, 10, 12, 24, 3, 4, 11, 13, 24, 30, 6, 19, 24, 2, 5, 9, 6, 9, 16, 10, 17, 21, 4, 7, 11, 6, 12, 27];
rreq = [|4, 3, 3, 5, 4, 3, 4, 4, 3, 4, 4, 4, 4, 3, 3, 5, 4, 4, 4, 4, 4, 5, 3, 3, 5, 4, 4, 5, 4, 4, 3, 2, 2, 4, 2, 2, 4, 2, 2, 3, 2, 2, 3, 2, 1, 4, 4, 2, 1, 1, 1, 4, 2, 1, 3, 3, 3, 3, 3, 2, 1, 1, 1, 3, 2, 2, 3, 2, 2, 5, 4, 2, 3, 2, 2, 1, 1, 1, 4, 3, 2, 5, 2, 1, 5, 3, 2, 2, 2, 2, 5, 3, 1, 4, 4, 3, 3, 3, 2, 4, 3, 2, 5, 3, 2, 4, 4, 4, 3, 3, 3, 3, 1, 1, 5, 3, 2, 1, 1, 1, 2, 1, 1, 5, 3, 1, 2, 1, 1, 4, 4, 2, 4, 4, 4, 2, 1, 1, 3, 3, 3, 3, 2, 1, 5, 4, 4, 3, 3, 3
 |3, 2, 2, 4, 4, 4, 3, 3, 3, 2, 2, 2, 2, 2, 1, 1, 1, 1, 1, 1, 1, 5, 4, 4, 3, 3, 3, 5, 3, 2, 1, 1, 1, 4, 4, 4, 4, 2, 2, 4, 3, 3, 2, 2, 2, 5, 4, 3, 2, 2, 2, 1, 1, 1, 4, 4, 4, 4, 4, 4, 5, 5, 5, 4, 4, 4, 4, 3, 3, 2, 2, 2, 4, 2, 2, 3, 3, 2, 5, 3, 3, 2, 2, 2, 5, 4, 3, 4, 3, 2, 5, 3, 2, 2, 2, 1, 5, 3, 1, 3, 3, 2, 4, 3, 3, 5, 2, 2, 4, 2, 2, 3, 1, 1, 2, 1, 1, 3, 2, 1, 3, 2, 2, 3, 2, 1, 3, 3, 2, 4, 4, 3, 4, 3, 3, 3, 2, 2, 5, 4, 4, 3, 3, 3, 1, 1, 1, 5, 3, 3
 |4, 4, 4, 5, 4, 3, 2, 2, 1, 2, 2, 2, 4, 3, 3, 4, 3, 2, 3, 3, 3, 2, 2, 1, 5, 4, 4, 3, 2, 2, 2, 2, 2, 3, 2, 2, 2, 1, 1, 5, 3, 3, 5, 4, 4, 3, 2, 2, 2, 2, 2, 3, 2, 2, 2, 2, 2, 5, 4, 4, 4, 4, 4, 1, 1, 1, 3, 2, 2, 4, 4, 3, 4, 3, 1, 4, 3, 2, 2, 2, 2, 2, 2, 2, 2, 1, 1, 4, 4, 2, 4, 4, 4, 3, 3, 1, 3, 3, 3, 4, 3, 3, 4, 4, 2, 3, 2, 2, 3, 3, 3, 3, 2, 1, 4, 2, 2, 4, 3, 2, 3, 3, 3, 3, 2, 2, 3, 3, 3, 5, 5, 5, 5, 5, 5, 5, 3, 2, 3, 1, 1, 5, 4, 2, 4, 3, 1, 4, 2, 2
 |4, 3, 3, 1, 1, 1, 1, 1, 1, 2, 1, 1, 1, 1, 1, 1, 1, 1, 2, 2, 2, 4, 3, 1, 2, 2, 2, 4, 4, 4, 4, 3, 2, 4, 4, 4, 3, 3, 2, 2, 2, 2, 5, 2, 2, 3, 2, 2, 3, 3, 2, 3, 3, 1, 1, 1, 1, 1, 1, 1, 3, 3, 2, 4, 4, 4, 4, 4, 3, 5, 4, 4, 1, 1, 1, 5, 4, 4, 3, 2, 2, 3, 3, 2, 3, 1, 1, 4, 4, 3, 2, 1, 1, 4, 2, 2, 2, 2, 2, 4, 3, 3, 1, 1, 1, 3, 3, 1, 4, 3, 3, 5, 4, 4, 5, 4, 3, 2, 2, 2, 5, 5, 5, 1, 1, 1, 4, 4, 3, 4, 3, 3, 4, 3, 2, 3, 3, 3, 4, 3, 3, 5, 5, 5, 2, 1, 1, 3, 2, 1
 |17, 16, 16, 24, 14, 10, 22, 14, 8, 27, 26, 25, 26, 26, 26, 27, 15, 12, 18, 18, 18, 27, 25, 24, 17, 16, 14, 14, 12, 11, 11, 8, 6, 28, 28, 27, 23, 13, 3, 29, 23, 18, 12, 11, 11, 10, 5, 4, 17, 15, 12, 28, 22, 16, 26, 17, 6, 15, 9, 7, 19, 12, 8, 24, 23, 22, 28, 22, 17, 22, 22, 18, 17, 14, 14, 10, 9, 4, 17, 15, 10, 19, 13, 8, 11, 10, 9, 27, 23, 20, 24, 23, 16, 26, 25, 24, 19, 14, 5, 15, 14, 11, 22, 17, 14, 26, 19, 11, 8, 6, 3, 19, 14, 12, 21, 20, 19, 16, 8, 4, 30, 26, 26, 29, 26, 24, 20, 12, 5, 25, 24, 24, 12, 8, 6, 23, 23, 23, 7, 6, 5, 12, 9, 6, 23, 17, 13, 20, 14, 8
 |18, 16, 16, 22, 16, 11, 15, 15, 12, 24, 11, 3, 25, 13, 8, 22, 20, 15, 22, 21, 19, 11, 11, 9, 16, 16, 13, 2, 2, 2, 23, 15, 13, 23, 19, 18, 10, 10, 10, 10, 10, 9, 24, 18, 16, 9, 7, 6, 19, 12, 4, 25, 18, 10, 26, 17, 15, 24, 24, 24, 8, 7, 6, 26, 14, 14, 24, 19, 8, 18, 14, 12, 20, 12, 6, 19, 18, 7, 22, 20, 20, 22, 15, 6, 14, 9, 7, 21, 14, 10, 21, 12, 10, 28, 28, 28, 26, 17, 5, 20, 15, 10, 18, 14, 7, 15, 14, 9, 26, 22, 19, 24, 19, 9, 26, 19, 10, 16, 11, 9, 28, 17, 13, 29, 24, 21, 9, 8, 5, 22, 22, 22, 16, 16, 13, 7, 4, 4, 12, 9, 8, 23, 21, 21, 13, 10, 7, 20, 20, 18
 |18, 13, 5, 18, 18, 14, 18, 16, 14, 28, 25, 25, 22, 17, 14, 17, 12, 3, 19, 15, 11, 25, 19, 9, 28, 23, 20, 8, 6, 6, 24, 9, 1, 27, 24, 23, 18, 18, 18, 17, 12, 6, 23, 13, 2, 4, 4, 4, 18, 16, 16, 25, 22, 17, 27, 27, 23, 17, 11, 9, 24, 13, 12, 19, 15, 9, 9, 8, 7, 23, 23, 23, 6, 4, 2, 19, 14, 12, 19, 8, 2, 25, 19, 17, 21, 20, 14, 23, 22, 22, 21, 21, 18, 10, 7, 2, 7, 5, 2, 8, 7, 6, 25, 25, 24, 23, 22, 22, 20, 19, 19, 24, 18, 8, 10, 10, 10, 17, 13, 12, 16, 14, 6, 28, 26, 25, 22, 22, 20, 20, 18, 18, 27, 21, 17, 4, 3, 1, 28, 20, 10, 23, 23, 22, 26, 20, 19, 22, 15, 11
 |15, 13, 8, 22, 21, 21, 3, 3, 2, 7, 7, 7, 22, 21, 19, 17, 14, 6, 21, 21, 19, 22, 19, 17, 9, 8, 7, 2, 2, 2, 26, 17, 10, 12, 11, 10, 24, 17, 12, 24, 18, 17, 12, 12, 9, 24, 20, 10, 27, 27, 27, 30, 28, 26, 3, 2, 2, 12, 10, 7, 11, 8, 3, 14, 14, 11, 4, 2, 2, 20, 18, 12, 22, 19, 12, 18, 15, 15, 20, 10, 3, 24, 22, 13, 29, 13, 10, 10, 8, 6, 23, 23, 22, 12, 10, 6, 10, 9, 6, 28, 28, 28, 19, 16, 14, 24, 23, 21, 6, 5, 5, 12, 12, 4, 14, 10, 9, 20, 15, 7, 2, 1, 1, 23, 21, 20, 23, 19, 16, 7, 5, 2, 15, 11, 11, 21, 16, 5, 23, 17, 13, 10, 7, 3, 4, 4, 4, 22, 20, 18|];